0000000000000000
0000000000000000
0110000000000000
0110000000000000
0110000000000000
0110000000000000
0111111111000000
0111111111000000
0000001111000000
0000001111000000
0000001110000000
0000011110000000
0000011100000000
0000011100000000
0000011100000000
0000000000000000
